\* Problem: Unknown *\

Maximize
 obj: + xp_0_0 + xp_0_1 + xp_0_2 + xp_1_0 + xp_1_1 + xp_1_2 + xp_1_3
 + xp_1_4 + xp_1_5 + xp_1_6 + xp_1_7 + xp_2_0 + xp_2_1 + xp_2_2 + xp_2_3
 + xp_2_4 + xp_2_5 + xp_2_6 + xp_2_7 + xp_2_8 + xp_2_9 + xp_3_0 + xp_3_1
 + xp_3_2 + xp_3_3 + xp_3_4 + xp_3_5 + xp_3_6 + xp_3_7 + xp_3_8 + xp_3_9
 + xp_3_10 + xp_4_0 + xp_4_1 + xp_5_0 + xp_5_1 + xp_5_2 + xp_5_3
 + xp_6_0 + xp_6_1 + xp_6_2 + xp_6_3 + xp_6_4 + xp_7_0 + xp_7_1 + xp_8_0
 + xp_8_1 + xp_8_2 + xp_8_3 + xp_9_0 + xp_9_1 + xp_9_2 + xp_9_3
 + xp_10_0 + xp_10_1 + xp_10_2 + xp_10_3 + xp_10_4 + xp_10_5 + xp_11_0
 + xp_11_1 + xp_12_0 + xp_12_1 + xp_12_2 + xp_13_0 + xp_13_1 + xp_13_2
 + xp_13_3 + xp_14_0 + xp_14_1 + xp_14_2 + xp_14_3 + xp_14_4 + xp_14_5
 + xp_14_6 + xp_14_7 + xp_14_8 + xp_15_0 + xp_15_1 + xp_15_2 + xp_15_3
 + xp_15_4 + xp_16_0 + xp_16_1 + xp_17_0 + xp_17_1 + xp_17_2 + xp_17_3
 + xp_17_4 + xp_17_5 + xp_18_0 + xp_18_1 + xp_18_2 + xp_18_3 + xp_18_4
 + xp_18_5 + xp_19_0 + xp_19_1 + xp_19_2 + xp_19_3 + xp_19_4 + xp_19_5
 + xp_19_6 + xp_19_7 + xp_19_8 + xp_19_9 + xp_19_10 + xp_19_11 + xp_20_0
 + xp_20_1 + xp_20_2 + xp_20_3 + xp_20_4 + xp_20_5 + xp_20_6 + xp_20_7
 + xp_20_8 + xp_21_0 + xp_21_1 + xp_21_2 + xp_21_3 + xp_21_4 + xp_21_5

Subject To
 r_1: + xp_20_0 <= 0.853951890034364
 r_2: + xp_10_0 + xp_2_1 <= 0.853951890034364
 r_3: + xp_20_8 + xp_20_2 + xp_10_4 <= 0.841022443890274
 r_4: + xp_20_6 + xp_20_3 + xp_19_5 + xp_18_0 + xp_14_4 + xp_10_2
 <= 0.841987179487179
 r_5: + xp_21_3 + xp_20_7 + xp_20_5 + xp_19_11 + xp_19_9 + xp_11_1
 + xp_10_3 + xp_3_2 + xp_2_8 <= 0.835512552301255
 r_6: + xp_19_10 + xp_11_0 <= 0.840109223300971
 r_7: + xp_20_4 + xp_18_5 + xp_10_5 + xp_10_1 + xp_3_9
 <= 0.849151234567901
 r_8: + xp_20_1 <= 0.838421658986175
 r_9: + xp_2_0 + xp_1_7 <= 0.853951890034364
 r_10: 0 xp_0_0 <= 0.841022443890274
 r_11: + xp_1_3 + xp_0_2 <= 0.849151234567901
 r_12: 0 xp_0_0 <= 0.838421658986175
 r_13: + xp_12_1 <= 0.840109223300971
 r_14: + xp_2_3 <= 0.841987179487179
 r_15: + xp_21_4 + xp_3_5 + xp_1_5 <= 0.835512552301255
 r_16: + xp_13_1 <= 0.853951890034364
 r_17: + xp_9_1 <= 0.853951890034364
 r_18: + xp_19_0 + xp_12_2 + xp_6_3 <= 0.840109223300971
 r_19: + xp_17_5 + xp_15_4 + xp_14_6 + xp_14_3 + xp_8_2
 <= 0.853951890034364
 r_20: + xp_1_2 <= 0.841987179487179
 r_21: 0 xp_0_0 <= 0.841022443890274
 r_22: + xp_3_10 + xp_3_6 + xp_2_5 <= 0.841987179487179
 r_23: 0 xp_0_0 <= 0.838421658986175
 r_24: 0 xp_0_0 <= 0.838421658986175
 r_25: 0 xp_0_0 <= 0.835512552301255
 r_26: + xp_17_0 + xp_15_2 + xp_14_8 <= 0.835512552301255
 r_27: + xp_20_5 + xp_17_5 + xp_1_5 + xp_1_0 <= 0.841987179487179
 r_28: + xp_4_1 <= 0.841022443890274
 r_29: + xp_17_1 + xp_14_7 + xp_10_5 + xp_10_3 + xp_5_2 + xp_2_8
 + xp_2_6 <= 0.853951890034364
 r_30: + xp_20_7 + xp_19_11 + xp_18_1 + xp_17_3 + xp_11_1
 <= 0.841987179487179
 r_31: + xp_17_4 + xp_1_6 <= 0.849151234567901
 r_32: + xp_19_9 + xp_19_8 + xp_19_6 + xp_19_1 + xp_17_2 + xp_6_2
 <= 0.840109223300971
 r_33: + xp_21_5 + xp_21_1 + xp_13_2 + xp_3_7 + xp_2_9 + xp_1_4
 <= 0.841987179487179
 r_34: + xp_13_0 <= 0.840109223300971
 r_35: + xp_21_4 + xp_17_2 + xp_13_1 <= 0.840109223300971
 r_36: + xp_21_2 + xp_13_3 + xp_2_7 <= 0.841987179487179
 r_37: + xp_21_3 + xp_9_2 <= 0.840109223300971
 r_38: 0 xp_0_0 <= 0.838421658986175
 r_39: + xp_21_0 + xp_3_1 <= 0.840109223300971
 r_40: 0 xp_0_0 <= 0.841987179487179
 r_41: 0 xp_0_0 <= 0.853951890034364
 r_42: + xp_17_1 + xp_15_3 + xp_14_7 + xp_14_1 + xp_8_3
 <= 0.853951890034364
 r_43: + xp_7_1 + xp_1_7 <= 0.841987179487179
 r_44: 0 xp_0_0 <= 0.841022443890274
 r_45: + xp_3_8 <= 0.853951890034364
 r_46: 0 xp_0_0 <= 0.849151234567901
 r_47: + xp_19_3 + xp_6_0 <= 0.841987179487179
 r_48: + xp_19_7 + xp_18_3 + xp_6_1 + xp_5_3 <= 0.841987179487179
 r_49: 0 xp_0_0 <= 0.841022443890274
 r_50: + xp_20_8 + xp_20_6 + xp_20_5 + xp_20_4 + xp_17_5 + xp_16_1
 + xp_15_4 + xp_14_6 + xp_13_2 + xp_6_3 <= 0.841987179487179
 r_51: + xp_21_1 + xp_19_8 + xp_6_2 + xp_5_2 + xp_3_7
 <= 0.841987179487179
 r_52: + xp_5_0 + xp_2_9 <= 0.841987179487179
 r_53: + xp_21_5 + xp_18_4 + xp_6_4 + xp_5_1 <= 0.849151234567901
 r_54: + xp_10_2 + xp_8_3 + xp_7_1 + xp_5_3 + xp_2_7 + xp_2_5 + xp_2_3
 <= 0.841987179487179
 r_55: + xp_20_6 + xp_16_1 + xp_7_0 <= 0.841987179487179
 r_56: + xp_19_11 + xp_19_7 + xp_19_5 + xp_19_4 + xp_11_1 + xp_6_4
 + xp_6_1 <= 0.841987179487179
 r_57: 0 xp_0_0 <= 0.841987179487179
 r_58: + xp_17_3 + xp_15_1 + xp_14_5 + xp_14_4 + xp_8_0
 <= 0.841987179487179
 r_59: + xp_20_7 + xp_20_3 + xp_16_0 + xp_13_3 + xp_8_2
 <= 0.841987179487179
 r_60: + xp_21_2 + xp_3_10 <= 0.841987179487179
 r_61: + xp_8_1 + xp_3_6 <= 0.849151234567901
 r_62: + xp_20_8 + xp_19_8 + xp_19_7 + xp_19_3 + xp_18_4 + xp_18_3
 + xp_14_6 + xp_1_1 <= 0.841022443890274
 r_63: + xp_19_11 + xp_19_10 + xp_19_9 + xp_19_5 + xp_18_5 + xp_18_0
 + xp_14_4 + xp_9_3 <= 0.841022443890274
 r_64: + xp_14_0 <= 0.841022443890274
 r_65: + xp_20_2 + xp_19_0 + xp_14_3 <= 0.841022443890274
 r_66: + xp_19_1 + xp_18_1 + xp_14_8 + xp_14_7 + xp_3_4
 <= 0.841022443890274
 r_67: + xp_14_1 + xp_10_4 + xp_3_8 + xp_2_2 <= 0.841022443890274
 r_68: + xp_19_6 + xp_19_4 + xp_18_2 + xp_14_5 + xp_14_2 + xp_0_1
 <= 0.849151234567901
 r_69: + xp_19_2 <= 0.838421658986175
 r_70: 0 xp_0_0 <= 0.838421658986175
 r_71: + xp_17_4 + xp_15_0 + xp_14_2 + xp_8_1 <= 0.849151234567901
 r_72: 0 xp_0_0 <= 0.849151234567901
 r_73: + xp_21_5 + xp_19_6 + xp_15_2 + xp_10_5 + xp_4_1 + xp_3_9
 + xp_3_6 + xp_3_3 <= 0.849151234567901
 r_74: + xp_15_3 + xp_10_1 + xp_5_1 + xp_2_4 <= 0.849151234567901
 r_75: + xp_20_4 + xp_15_4 + xp_1_6 + xp_1_3 <= 0.849151234567901
 r_76: + xp_19_4 + xp_18_5 + xp_18_4 + xp_18_2 + xp_15_1 + xp_14_5
 + xp_6_4 <= 0.849151234567901
 r_77: + xp_4_0 <= 0.849151234567901
 r_78: + xp_3_0 + xp_2_6 + xp_1_6 + xp_1_0 <= 0.838421658986175
 r_79: + xp_3_3 + xp_2_4 + xp_0_0 <= 0.838421658986175
 r_80: + xp_12_1 + xp_3_5 + xp_2_3 + xp_2_0 + xp_1_7 + xp_1_5 + xp_1_3
 + xp_0_2 <= 0.838421658986175
 r_81: + xp_9_0 + xp_3_9 + xp_3_2 + xp_2_8 + xp_2_1 <= 0.838421658986175
 r_82: + xp_20_1 + xp_12_2 + xp_9_1 + xp_3_10 + xp_3_6 + xp_2_5 + xp_1_2
 <= 0.838421658986175
 r_83: + xp_19_2 + xp_12_0 + xp_9_2 + xp_3_7 + xp_3_1 + xp_2_9 + xp_2_7
 + xp_1_4 <= 0.838421658986175
 r_84: + xp_9_3 + xp_3_8 + xp_3_4 + xp_2_2 + xp_1_1 + xp_0_1
 <= 0.838421658986175

Bounds
 0 <= xp_0_0 <= 0.833333333333333
 0 <= xp_0_1 <= 0.0555555555555556
 0 <= xp_0_2 <= 0.0555555555555556
 0 <= xp_1_0 <= 0.5
 0 <= xp_1_1 <= 0.138888888888889
 0 <= xp_1_2 <= 0.361111111111111
 0 <= xp_1_3 <= 0.0555555555555556
 0 <= xp_1_4 <= 0.194444444444444
 0 <= xp_1_5 <= 0.0277777777777778
 0 <= xp_1_6 <= 0.111111111111111
 0 <= xp_1_7 <= 0.0277777777777778
 0 <= xp_2_0 <= 0.527777777777778
 0 <= xp_2_1 <= 0.194444444444444
 0 <= xp_2_2 <= 0.305555555555556
 0 <= xp_2_3 <= 0.0555555555555556
 0 <= xp_2_4 <= 0.0833333333333333
 0 <= xp_2_5 <= 0.111111111111111
 0 <= xp_2_6 <= 0.0277777777777778
 0 <= xp_2_7 <= 0.0277777777777778
 0 <= xp_2_8 <= 0.0555555555555556
 0 <= xp_2_9 <= 0.0277777777777778
 0 <= xp_3_0 <= 0.333333333333333
 0 <= xp_3_1 <= 0.166666666666667
 0 <= xp_3_2 <= 0.388888888888889
 0 <= xp_3_3 <= 0.0555555555555556
 0 <= xp_3_4 <= 0.277777777777778
 0 <= xp_3_5 <= 0.222222222222222
 0 <= xp_3_6 <= 0.166666666666667
 0 <= xp_3_7 <= 0.111111111111111
 0 <= xp_3_8 <= 0.0555555555555556
 0 <= xp_3_9 <= 0.0555555555555556
 0 <= xp_3_10 <= 0.0555555555555556
 0 <= xp_4_0 <= 0.444444444444444
 0 <= xp_4_1 <= 0.0277777777777778
 0 <= xp_5_0 <= 0.666666666666667
 0 <= xp_5_1 <= 0.111111111111111
 0 <= xp_5_2 <= 0.111111111111111
 0 <= xp_5_3 <= 0.0555555555555556
 0 <= xp_6_0 <= 0.555555555555556
 0 <= xp_6_1 <= 0.222222222222222
 0 <= xp_6_2 <= 0.0555555555555556
 0 <= xp_6_3 <= 0.0555555555555556
 0 <= xp_6_4 <= 0.0555555555555556
 0 <= xp_7_0 <= 0.444444444444444
 0 <= xp_7_1 <= 0.0277777777777778
 0 <= xp_8_0 <= 0.305555555555556
 0 <= xp_8_1 <= 0.0833333333333333
 0 <= xp_8_2 <= 0.0277777777777778
 0 <= xp_8_3 <= 0.0555555555555556
 0 <= xp_9_0 <= 0.25
 0 <= xp_9_1 <= 0.0277777777777778
 0 <= xp_9_2 <= 0.0833333333333333
 0 <= xp_9_3 <= 0.111111111111111
 0 <= xp_10_0 <= 0.638888888888889
 0 <= xp_10_1 <= 0.333333333333333
 0 <= xp_10_2 <= 0.277777777777778
 0 <= xp_10_3 <= 0.0555555555555556
 0 <= xp_10_4 <= 0.0833333333333333
 0 <= xp_10_5 <= 0.0277777777777778
 0 <= xp_11_0 <= 0.888888888888889
 0 <= xp_11_1 <= 0.0555555555555556
 0 <= xp_12_0 <= 0.305555555555556
 0 <= xp_12_1 <= 0.0277777777777778
 0 <= xp_12_2 <= 0.138888888888889
 0 <= xp_13_0 <= 0.888888888888889
 0 <= xp_13_1 <= 0.777777777777778
 0 <= xp_13_2 <= 0.111111111111111
 0 <= xp_13_3 <= 0.111111111111111
 0 <= xp_14_0 <= 0.972222222222222
 0 <= xp_14_1 <= 0.361111111111111
 0 <= xp_14_2 <= 0.305555555555556
 0 <= xp_14_3 <= 0.444444444444444
 0 <= xp_14_4 <= 0.0277777777777778
 0 <= xp_14_5 <= 0.0555555555555556
 0 <= xp_14_6 <= 0.0833333333333333
 0 <= xp_14_7 <= 0.0555555555555556
 0 <= xp_14_8 <= 0.0555555555555556
 0 <= xp_15_0 <= 0.5
 0 <= xp_15_1 <= 0.166666666666667
 0 <= xp_15_2 <= 0.111111111111111
 0 <= xp_15_3 <= 0.111111111111111
 0 <= xp_15_4 <= 0.0555555555555556
 0 <= xp_16_0 <= 0.444444444444444
 0 <= xp_16_1 <= 0.0277777777777778
 0 <= xp_17_0 <= 0.75
 0 <= xp_17_1 <= 0.25
 0 <= xp_17_2 <= 0.0555555555555556
 0 <= xp_17_3 <= 0.305555555555556
 0 <= xp_17_4 <= 0.0277777777777778
 0 <= xp_17_5 <= 0.0277777777777778
 0 <= xp_18_0 <= 0.111111111111111
 0 <= xp_18_1 <= 0.111111111111111
 0 <= xp_18_2 <= 0.0555555555555556
 0 <= xp_18_3 <= 0.138888888888889
 0 <= xp_18_4 <= 0.0277777777777778
 0 <= xp_18_5 <= 0.0277777777777778
 0 <= xp_19_0 <= 0.0555555555555556
 0 <= xp_19_1 <= 0.333333333333333
 0 <= xp_19_2 <= 0.0277777777777778
 0 <= xp_19_3 <= 0.194444444444444
 0 <= xp_19_4 <= 0.194444444444444
 0 <= xp_19_5 <= 0.111111111111111
 0 <= xp_19_6 <= 0.166666666666667
 0 <= xp_19_7 <= 0.111111111111111
 0 <= xp_19_8 <= 0.0555555555555556
 0 <= xp_19_9 <= 0.111111111111111
 0 <= xp_19_10 <= 0.0277777777777778
 0 <= xp_19_11 <= 0.0277777777777778
 0 <= xp_20_0 <= 1
 0 <= xp_20_1 <= 0.111111111111111
 0 <= xp_20_2 <= 0.472222222222222
 0 <= xp_20_3 <= 0.222222222222222
 0 <= xp_20_4 <= 0.361111111111111
 0 <= xp_20_5 <= 0.0555555555555556
 0 <= xp_20_6 <= 0.0555555555555556
 0 <= xp_20_7 <= 0.0277777777777778
 0 <= xp_20_8 <= 0.0555555555555556
 0 <= xp_21_0 <= 0.583333333333333
 0 <= xp_21_1 <= 0.194444444444444
 0 <= xp_21_2 <= 0.555555555555556
 0 <= xp_21_3 <= 0.0277777777777778
 0 <= xp_21_4 <= 0.0277777777777778
 0 <= xp_21_5 <= 0.0277777777777778

End
